
List of user-set options:

                                    Name   Value                used
                           compl_inf_tol = 1                     yes
                         constr_viol_tol = 1                     yes
                            dual_inf_tol = 1000                  yes
                           linear_solver = ma97                  yes
                              ma86_small = 1e-30                  no
                                  ma86_u = 0.0001                 no
                              ma97_order = best                  yes
                              ma97_small = 1e-30                 yes
                            ma97_switch1 = at_start              yes
                            ma97_switch2 = od_hd_reuse           yes
                                  ma97_u = 1e-06                 yes
                               ma97_umax = 0.5                   yes
                                max_iter = 1000                  yes
                    max_refinement_steps = 20                    yes
                    min_refinement_steps = 5                     yes
                                 mu_init = 1e-06                 yes
           mu_superlinear_decrease_power = 1.25                  yes
                   nlp_scaling_min_value = 1e-08                 yes
                        option_file_name = Preset_Case_862_pf.opt  yes
                             output_file = ./tmp/Preset_Case_862_pf.output  yes
                      print_user_options = yes                   yes
        required_infeasibility_reduction = 1                      no
                                     tol = 1e-08                 yes
                   warm_start_bound_frac = 1e-20                 yes
                   warm_start_bound_push = 1e-20                 yes
                   warm_start_init_point = yes                   yes
              warm_start_mult_bound_push = 1e-20                 yes
                warm_start_mult_init_max = 1e+40                 yes
             warm_start_slack_bound_frac = 1e-20                 yes
             warm_start_slack_bound_push = 1e-20                 yes

******************************************************************************
This program contains Ipopt, a library for large-scale nonlinear optimization.
 Ipopt is released as open source code under the Eclipse Public License (EPL).
         For more information visit http://projects.coin-or.org/Ipopt
******************************************************************************

This is Ipopt version 3.12.10, running with linear solver ma97.

Number of nonzeros in equality constraint Jacobian...:   123443
Number of nonzeros in inequality constraint Jacobian.:      213
Number of nonzeros in Lagrangian Hessian.............:    49069

Total number of variables............................:    31591
                     variables with only lower bounds:    12912
                variables with lower and upper bounds:    15130
                     variables with only upper bounds:        0
Total number of equality constraints.................:    31483
Total number of inequality constraints...............:       25
        inequality constraints with only lower bounds:        4
   inequality constraints with lower and upper bounds:        0
        inequality constraints with only upper bounds:       21

iter    objective    inf_pr   inf_du lg(mu)  ||d||  lg(rg) alpha_du alpha_pr  ls
   0 -5.1198738e+00 4.06e-03 1.02e+00  -6.0 0.00e+00    -  0.00e+00 0.00e+00   0
   1 -5.1193220e+00 5.33e-02 1.99e+00  -6.0 5.60e+05    -  1.00e-04 8.69e-05h  5
   2 -5.1216190e+00 5.32e-02 5.07e+01  -6.0 1.48e+04    -  2.25e-01 1.92e-03h  1
   3 -5.4290871e+00 4.48e+00 2.01e+03  -6.0 1.47e+04    -  1.56e-01 2.59e-01f  1
   4 -5.5112851e+00 1.84e+01 1.96e+03  -6.0 6.76e+03    -  3.55e-02 1.35e-01h  1
   5 -5.5720625e+00 3.44e+01 1.86e+03  -6.0 6.42e+03    -  1.49e-01 1.41e-01h  1
   6 -5.5720574e+00 3.44e+01 1.86e+03  -6.0 2.80e+01  -4.0 2.89e-01 1.36e-04h  1
   7 -5.6488085e+00 2.96e+01 1.75e+03  -6.0 4.37e+03    -  7.17e-02 2.05e-01h  1
   8 -5.6485850e+00 2.94e+01 1.74e+03  -6.0 2.74e+01  -4.5 1.76e-06 7.30e-03h  1
   9 -5.8067813e+00 5.59e+01 2.03e+03  -6.0 4.77e+03    -  2.72e-06 3.74e-01f  1
iter    objective    inf_pr   inf_du lg(mu)  ||d||  lg(rg) alpha_du alpha_pr  ls
  10 -5.6789945e+00 1.31e-01 3.18e+06  -6.0 2.58e+01  -5.0 5.32e-02 1.00e+00h  1
  11 -5.7105769e+00 4.49e-02 1.10e+05  -6.0 4.48e+01  -5.4 3.90e-01 1.00e+00h  1
  12 -5.7363642e+00 3.13e-01 8.16e+04  -6.0 5.86e+01  -5.9 2.61e-01 2.49e-01h  1
  13 -5.7736195e+00 3.15e-01 7.10e+04  -6.0 1.42e+02  -6.4 1.62e-01 9.07e-01f  1
  14 -5.7736068e+00 3.15e-01 7.10e+04  -6.0 9.77e+02  -6.9 1.49e-07 7.58e-05h  1
  15 -5.7736073e+00 3.15e-01 7.03e+04  -6.0 1.84e+02  -2.8 1.14e-02 7.29e-05h  1
  16 -5.7636925e+00 1.63e-01 6.73e+04  -6.0 2.14e+00  -3.3 2.10e-03 4.83e-01h  1
  17 -5.7635047e+00 1.34e-01 3.29e+04  -6.0 1.50e+00  -2.9 5.27e-01 1.76e-01h  1
  18 -5.7635926e+00 1.34e-01 3.17e+04  -6.0 4.99e+00  -3.4 1.19e-01 7.14e-03h  1
  19 -5.7593886e+00 1.78e-03 1.97e+04  -6.0 6.56e-01  -2.9 2.60e-01 1.00e+00h  1
iter    objective    inf_pr   inf_du lg(mu)  ||d||  lg(rg) alpha_du alpha_pr  ls
  20 -5.7607217e+00 1.21e-03 2.32e+03  -6.0 9.11e-01  -3.4 8.83e-01 4.25e-01h  1
  21 -5.7685616e+00 2.71e-02 1.58e+02  -6.0 1.82e+00  -3.9 9.32e-01 1.00e+00f  1
  22 -5.7744906e+00 2.54e-02 7.39e+01  -6.0 4.55e+00  -4.4 5.32e-01 4.67e-01h  1
  23 -5.7851042e+00 1.77e-01 1.31e+04  -6.0 6.21e+00  -4.8 3.42e-01 1.00e+00h  1
  24 -5.7858846e+00 1.68e-01 3.28e+04  -6.0 1.48e+01  -5.3 4.07e-01 5.37e-02h  1
  25 -5.7957236e+00 1.44e-01 1.84e+04  -6.0 4.35e+01  -5.8 6.80e-01 6.05e-01h  1
  26 -5.8069808e+00 2.50e-01 3.85e+04  -6.0 1.21e+02  -6.3 5.13e-01 4.06e-01h  1
  27 -5.8187823e+00 4.25e-01 2.35e+05  -6.0 3.10e+02  -6.7 6.15e-01 2.22e-01h  1
  28 -5.8716813e+00 5.74e+00 1.61e+05  -6.0 7.01e+02  -7.2 5.88e-01 5.11e-01h  1
  29 -5.8750990e+00 6.28e+00 1.27e+05  -6.0 1.69e+03  -7.7 5.86e-02 6.62e-02h  1
iter    objective    inf_pr   inf_du lg(mu)  ||d||  lg(rg) alpha_du alpha_pr  ls
  30 -5.8751024e+00 6.28e+00 1.27e+05  -6.0 3.73e+01  -5.5 1.02e-04 9.75e-05h  1
  31 -5.8751032e+00 6.28e+00 1.27e+05  -6.0 7.79e+01  -5.9 2.45e-05 2.69e-05h  1
  32 -5.8667120e+00 5.47e+00 3.36e+05  -6.0 6.08e+02  -5.5 1.86e-02 1.35e-01h  1
  33 -5.8705209e+00 5.20e+00 1.03e+06  -6.0 2.26e+01  -5.1 2.38e-01 4.95e-02h  1
  34r-5.8705209e+00 5.20e+00 1.00e+03   0.3 0.00e+00  -5.6 0.00e+00 5.10e-08R  2
  35r-5.8767040e+00 5.20e+00 1.00e+03   0.3 1.45e+04    -  2.89e-06 9.98e-07f  1
  36 -5.8769491e+00 4.80e+00 1.10e+05  -6.0 2.17e+01    -  1.44e-01 7.57e-02h  1
  37 -5.8771950e+00 4.23e+00 2.32e+05  -6.0 1.07e+01    -  7.57e-02 1.20e-01h  1
  38 -5.8772620e+00 3.69e+00 2.03e+05  -6.0 6.92e+00    -  2.88e-01 1.27e-01h  1
  39 -5.8739998e+00 1.78e+00 9.71e+04  -6.0 3.13e+00    -  3.13e-01 5.21e-01h  1
iter    objective    inf_pr   inf_du lg(mu)  ||d||  lg(rg) alpha_du alpha_pr  ls
  40 -5.8738548e+00 1.48e+00 8.07e+04  -6.0 1.62e+00    -  4.88e-01 1.69e-01h  1
  41 -5.8747365e+00 1.53e-01 8.27e+03  -6.0 2.32e+00    -  2.97e-01 8.98e-01h  1
  42 -5.8776639e+00 1.02e-03 5.34e+01  -6.0 2.45e+00    -  8.20e-01 1.00e+00h  1
  43 -5.8830264e+00 4.58e-03 1.46e+01  -6.0 1.31e+01    -  4.63e-01 9.57e-01h  1
  44 -5.8849925e+00 1.02e-02 2.30e+00  -6.0 2.36e+01    -  9.59e-01 1.00e+00h  1
  45 -5.8888757e+00 4.75e-02 6.33e+00  -6.0 3.16e+02    -  7.57e-01 1.46e-01h  1
  46 -5.9099656e+00 6.94e-01 7.45e+00  -6.0 5.34e+02    -  4.93e-01 3.57e-01h  1
  47 -5.9233067e+00 1.38e+00 1.27e+01  -6.0 1.16e+03    -  1.95e-01 1.66e-01h  1
  48 -5.9407500e+00 9.03e-01 7.72e+03  -6.0 9.87e+02    -  6.79e-01 3.46e-01h  1
  49 -5.9575264e+00 4.60e+00 1.80e+04  -6.0 2.98e+03    -  5.52e-01 1.78e-01h  1
iter    objective    inf_pr   inf_du lg(mu)  ||d||  lg(rg) alpha_du alpha_pr  ls
  50 -5.9922548e+00 1.22e+01 1.57e+04  -6.0 1.80e+03    -  2.39e-01 5.10e-01h  1
  51 -6.0080828e+00 1.82e+01 1.59e+04  -6.0 1.51e+03    -  6.90e-01 5.20e-01h  1
  52 -6.0183909e+00 3.63e+01 4.11e+04  -6.0 2.27e+03    -  2.56e-01 5.41e-01h  1
  53 -6.0235093e+00 3.92e+01 8.10e+04  -6.0 2.60e+03    -  1.89e-01 3.20e-01h  1
  54 -6.0283278e+00 8.02e+01 2.07e+05  -6.0 6.91e+03    -  6.00e-03 2.26e-01h  1
  55 -6.0302869e+00 9.47e+01 3.11e+05  -6.0 8.19e+03    -  1.54e-02 1.43e-01h  1
  56 -6.0362009e+00 6.41e+01 6.73e+05  -6.0 1.07e+03    -  1.40e-03 3.34e-01h  1
  57 -6.0429254e+00 4.36e+01 4.50e+06  -6.0 3.57e+02  -6.0 1.53e-02 3.21e-01h  1
  58 -6.0395686e+00 3.11e+01 3.19e+06  -6.0 4.93e+02  -6.5 1.96e-01 2.86e-01h  1
  59 -6.0306852e+00 9.21e+00 1.02e+06  -6.0 1.27e+02  -7.0 3.16e-05 7.04e-01h  1
iter    objective    inf_pr   inf_du lg(mu)  ||d||  lg(rg) alpha_du alpha_pr  ls
  60 -6.0291808e+00 3.11e-02 2.26e+04  -6.0 2.47e+01  -7.5 2.66e-01 1.00e+00h  1
  61 -6.0294380e+00 3.06e-02 2.21e+04  -6.0 2.69e+02  -6.1 2.11e-02 1.70e-02h  1
  62 -6.0317846e+00 3.39e+00 9.55e+03  -6.0 4.91e+03    -  5.13e-01 7.20e-01F  1
  63 -6.0380638e+00 1.92e+01 4.84e+03  -6.0 1.11e+03    -  6.32e-01 9.50e-01h  1
  64 -6.0427909e+00 1.27e+01 2.93e+03  -6.0 9.14e+02    -  8.33e-01 4.02e-01h  1
  65 -6.0443495e+00 7.58e+00 1.12e+03  -6.0 8.68e+02    -  5.04e-01 6.17e-01h  1
  66 -6.0510473e+00 7.08e+00 1.04e+03  -6.0 7.71e+02  -6.6 2.94e-01 6.57e-02h  1
  67 -6.0520019e+00 6.59e+00 9.83e+02  -6.0 1.21e+03    -  6.63e-01 7.31e-02h  1
  68 -6.0568722e+00 1.23e+01 4.28e+03  -6.0 1.39e+03    -  2.97e-01 5.28e-01h  1
  69 -6.0561971e+00 1.21e+01 6.16e+03  -6.0 2.59e+03    -  3.88e-01 8.72e-02h  3
iter    objective    inf_pr   inf_du lg(mu)  ||d||  lg(rg) alpha_du alpha_pr  ls
  70 -6.0572216e+00 1.60e+01 6.77e+03  -6.0 2.88e+03    -  2.89e-02 2.16e-01h  1
  71 -6.0570801e+00 1.58e+01 9.05e+03  -6.0 3.56e+03    -  6.61e-02 1.56e-02h  5
  72 -6.0570331e+00 1.57e+01 1.30e+03  -6.0 1.01e+03  -7.1 4.13e-02 2.41e-03h  6
  73 -6.0570166e+00 1.57e+01 9.41e+03  -6.0 3.63e+03    -  1.62e-01 1.91e-03h  8
  74 -6.0570131e+00 1.57e+01 9.38e+03  -6.0 4.41e+02  -7.6 6.77e-02 4.24e-04h 10
  75 -6.0570116e+00 1.57e+01 9.40e+03  -6.0 4.58e+02  -8.1 9.70e-03 2.02e-04h 11
  76 -6.0558050e+00 1.31e+01 7.72e+03  -6.0 5.38e+02  -8.5 2.90e-01 1.69e-01h  1
  77 -6.0478888e+00 8.48e+00 4.06e+02  -6.0 7.06e+02  -9.0 2.44e-01 1.00e+00h  1
  78 -6.0458267e+00 6.03e+00 9.11e+02  -6.0 4.73e+02    -  7.14e-02 3.44e-01h  1
  79 -6.0515814e+00 1.39e+00 1.42e+04  -6.0 2.79e+02    -  3.90e-03 1.00e+00h  1
iter    objective    inf_pr   inf_du lg(mu)  ||d||  lg(rg) alpha_du alpha_pr  ls
  80 -6.0493759e+00 3.74e-01 7.61e+01  -6.0 1.09e+02    -  8.87e-01 1.00e+00h  1
  81 -6.0484680e+00 2.46e-03 8.07e-01  -6.0 9.19e+00    -  1.00e+00 1.00e+00h  1
  82 -6.0484506e+00 2.05e-06 2.02e-03  -6.0 2.23e-01    -  1.00e+00 1.00e+00h  1
  83 -6.0484497e+00 1.30e-07 3.19e-06  -6.0 5.61e-02    -  1.00e+00 1.00e+00h  1
  84 -6.0485530e+00 2.65e+00 2.33e+01  -7.5 5.72e+02    -  8.08e-01 7.27e-01h  1
  85 -6.0485536e+00 7.61e-01 1.27e+01  -7.5 1.75e+02    -  1.00e+00 8.48e-01h  1
  86 -6.0485501e+00 9.14e-03 1.56e-02  -7.5 2.33e+01    -  1.00e+00 1.00e+00h  1
  87 -6.0485500e+00 6.51e-07 2.39e-07  -7.5 2.12e-01    -  1.00e+00 1.00e+00h  1
  88 -6.0485500e+00 2.85e-10 6.47e-12  -7.5 1.57e-05    -  1.00e+00 1.00e+00h  1
  89 -6.0485515e+00 3.96e-03 8.45e-01  -9.0 1.90e+01    -  9.26e-01 8.34e-01h  1
iter    objective    inf_pr   inf_du lg(mu)  ||d||  lg(rg) alpha_du alpha_pr  ls
  90 -6.0485518e+00 1.56e-04 2.27e-04  -9.0 3.14e+00    -  1.00e+00 1.00e+00h  1
  91 -6.0485518e+00 4.24e-10 3.96e-09  -9.0 3.46e-03    -  1.00e+00 1.00e+00h  1

Number of Iterations....: 91

                                   (scaled)                 (unscaled)
Objective...............:  -4.7254310739086556e+00   -6.0485517746030792e+00
Dual infeasibility......:   3.9555100732563411e-09    5.0630528937681163e-09
Constraint violation....:   4.2351786314065443e-10    4.2351786314065443e-10
Complementarity.........:   1.4314043561813759e-09    1.8321975759121612e-09
Overall NLP error.......:   3.9555100732563411e-09    5.0630528937681163e-09


Number of objective function evaluations             = 145
Number of objective gradient evaluations             = 92
Number of equality constraint evaluations            = 145
Number of inequality constraint evaluations          = 145
Number of equality constraint Jacobian evaluations   = 93
Number of inequality constraint Jacobian evaluations = 93
Number of Lagrangian Hessian evaluations             = 91
Total CPU secs in IPOPT (w/o function evaluations)   =    239.978
Total CPU secs in NLP function evaluations           =      3.629

EXIT: Optimal Solution Found.
